NAME: Random_45_1
ELLAPSED_TIME_(ms): 0
TOUR_SIZE: 939.9242
TOUR_SECTION
0
8
6
40
27
29
23
44
21
31
22
15
39
32
17
20
30
9
3
35
25
19
1
12
10
16
7
18
42
33
24
38
5
2
11
28
34
43
37
26
4
36
14
41
13
0
EOF
